(declare-fun b_ack!898 () (_ BitVec 64))
(declare-fun a_ack!899 () (_ BitVec 32))
(declare-fun FPCHECK_FDIV_ACCURACY ((_ BitVec 64) (_ FloatingPoint 11 53)) Bool)
(assert (fp.lt ((_ to_fp 11 53) b_ack!898) ((_ to_fp 11 53) #x0000000000000000)))
(assert (not (bvslt a_ack!899 #x00000000)))
(assert (not (fp.eq (fp.sub roundNearestTiesToEven
                    ((_ to_fp 11 53) #x8000000000000000)
                    ((_ to_fp 11 53) b_ack!898))
            ((_ to_fp 11 53) #x0000000000000000))))
(assert (not (= #x00000000 a_ack!899)))
(assert (not (= #x00000001 a_ack!899)))
(assert (not (= #x00000002 a_ack!899)))
(assert (let ((a!1 (fp.eq (fp.abs (fp.sub roundNearestTiesToEven
                                  ((_ to_fp 11 53) #x8000000000000000)
                                  ((_ to_fp 11 53) b_ack!898)))
                  ((_ to_fp 11 53) #x0000000000000000))))
  (not a!1)))
(assert (let ((a!1 (fp.div roundNearestTiesToEven
                   (fp.mul roundNearestTiesToEven
                           (fp.sub roundNearestTiesToEven
                                   ((_ to_fp 11 53) #x8000000000000000)
                                   ((_ to_fp 11 53) b_ack!898))
                           (fp.sub roundNearestTiesToEven
                                   ((_ to_fp 11 53) #x8000000000000000)
                                   ((_ to_fp 11 53) b_ack!898)))
                   (fp.sub roundNearestTiesToEven
                           ((_ to_fp 11 53) #x8000000000000000)
                           ((_ to_fp 11 53) b_ack!898)))))
  (fp.eq a!1
         (fp.sub roundNearestTiesToEven
                 ((_ to_fp 11 53) #x8000000000000000)
                 ((_ to_fp 11 53) b_ack!898)))))
(assert (let ((a!1 (fp.eq (fp.abs (fp.sub roundNearestTiesToEven
                                  ((_ to_fp 11 53) #x8000000000000000)
                                  ((_ to_fp 11 53) b_ack!898)))
                  ((_ to_fp 11 53) #x0000000000000000))))
  (not a!1)))
(assert (let ((a!1 (fp.div roundNearestTiesToEven
                   (fp.mul roundNearestTiesToEven
                           (fp.sub roundNearestTiesToEven
                                   ((_ to_fp 11 53) #x8000000000000000)
                                   ((_ to_fp 11 53) b_ack!898))
                           (fp.sub roundNearestTiesToEven
                                   ((_ to_fp 11 53) #x8000000000000000)
                                   ((_ to_fp 11 53) b_ack!898)))
                   (fp.sub roundNearestTiesToEven
                           ((_ to_fp 11 53) #x8000000000000000)
                           ((_ to_fp 11 53) b_ack!898)))))
  (fp.eq a!1
         (fp.sub roundNearestTiesToEven
                 ((_ to_fp 11 53) #x8000000000000000)
                 ((_ to_fp 11 53) b_ack!898)))))
(assert (let ((a!1 (fp.div roundNearestTiesToEven
                   (fp.mul roundNearestTiesToEven
                           ((_ to_fp 11 53) #x4024000000000000)
                           (fp.add roundNearestTiesToEven
                                   ((_ to_fp 11 53)
                                     roundNearestTiesToEven
                                     a_ack!899)
                                   ((_ to_fp 11 53) #x3ff8000000000000)))
                   ((_ to_fp 11 53) #x4005bf0a8b145769))))
(let ((a!2 (fp.lt (fp.mul roundNearestTiesToEven
                          (fp.sub roundNearestTiesToEven
                                  ((_ to_fp 11 53) #x8000000000000000)
                                  ((_ to_fp 11 53) b_ack!898))
                          (fp.sub roundNearestTiesToEven
                                  ((_ to_fp 11 53) #x8000000000000000)
                                  ((_ to_fp 11 53) b_ack!898)))
                  a!1)))
  (not a!2))))
(assert (not (bvslt a_ack!899 #x00000096)))
(assert (FPCHECK_FDIV_ACCURACY
  #x3fd28f5c28f5c28f
  (fp.add roundNearestTiesToEven
          ((_ to_fp 11 53) roundNearestTiesToEven (bvmul a_ack!899 a_ack!899))
          ((_ to_fp 11 53) #x3ff0000000000000))))

(check-sat)
(exit)
